NAME          COPTPROB
OBJSENSE
  MIN
ROWS
 N  __OBJ___
 L  C2      
 L  C3      
 L  C4      
 L  C6      
 L  C7      
 L  C10     
 L  C13     
 L  C17     
 L  C18     
 L  C19     
 L  C20     
 L  C21     
 L  C25     
 L  C27     
 L  C28     
 L  C29     
 L  C30     
 L  C31     
 L  C32     
 L  C36     
 L  C37     
 L  C38     
 L  C39     
 L  C40     
 L  C41     
 L  C42     
 L  C43     
 L  C44     
 L  C45     
 L  C46     
 L  C48     
 L  C50     
 L  C53     
 L  C54     
 L  C58     
 L  C59     
 L  C61     
 L  C64     
 L  C66     
 L  C69     
 L  C70     
 L  C72     
 L  C73     
 L  C74     
 L  C75     
 L  C80     
 L  C81     
 L  C83     
 L  C84     
 L  C85     
 L  C87     
 L  C88     
 L  C89     
 L  C90     
 L  C91     
 L  C92     
 L  C93     
 L  C95     
 L  C96     
 L  C98     
 L  C99     
 L  C101    
 L  C102    
 L  C104    
 L  C105    
 L  C109    
 L  C110    
 L  C111    
 L  C114    
 L  C115    
 L  C121    
 L  C122    
 L  C123    
 L  C125    
 L  C126    
 L  C128    
 L  C129    
 L  C130    
 L  C131    
 L  C134    
 L  C135    
 L  C141    
 L  C142    
 L  C143    
 L  C148    
 L  C149    
 L  C153    
 L  C155    
 L  C159    
 L  C162    
 L  C166    
 L  C167    
 L  C169    
 L  C170    
 L  C171    
 L  C172    
 L  C173    
 L  C181    
 L  C182    
 L  C183    
 L  C186    
 L  C188    
 L  C189    
 L  C191    
 L  C193    
 L  C194    
 L  C195    
 L  C198    
 L  C202    
 L  C205    
 L  C210    
 L  C211    
 L  C212    
 L  C213    
 L  C214    
 L  C215    
 L  C216    
 L  C223    
 L  C224    
 L  C226    
 L  C227    
 L  C228    
 L  C230    
 L  C231    
 L  C232    
 L  C234    
 L  C238    
 L  C240    
 L  C242    
 L  C243    
 L  C245    
 L  C247    
 L  C249    
 L  C250    
 L  C252    
 L  C255    
 L  C256    
 L  C257    
 L  C261    
 L  C264    
 L  C269    
 L  C270    
 L  C273    
 L  C274    
 L  C276    
 L  C277    
 L  C278    
 L  C280    
 L  C282    
 L  C284    
 L  C285    
 L  C290    
 L  C291    
 L  C292    
 L  C293    
 L  C294    
 L  C295    
 L  C296    
 L  C297    
 L  C299    
 L  C300    
 L  C306    
 L  C307    
 L  C314    
 L  C318    
 L  C320    
 L  C322    
 L  C323    
 L  C325    
 L  C327    
 L  C329    
 L  C330    
 L  C331    
 L  C333    
 L  C334    
 L  C335    
 L  C336    
 L  C338    
 L  C339    
 L  C342    
 L  C345    
 L  C346    
 L  C350    
 L  C351    
 L  C355    
 L  C356    
 L  C357    
 L  C359    
 L  C360    
 L  C363    
 L  C364    
 L  C365    
 L  C367    
 L  C369    
 L  C371    
 L  C374    
 L  C377    
 L  C380    
 L  C382    
 L  C384    
 L  C386    
 L  C393    
 L  C394    
 L  C397    
 L  C398    
 L  C402    
 L  C403    
 L  C405    
 L  C406    
 L  C407    
 L  C408    
 L  C409    
 L  C412    
 L  C413    
 L  C414    
 L  C415    
 L  C416    
 L  C419    
 L  C421    
 L  C424    
 L  C425    
 L  C428    
 L  C429    
 L  C430    
 L  C431    
 L  C432    
 L  C434    
 L  C436    
 L  C437    
 L  C438    
 L  C440    
 L  C441    
 L  C443    
 L  C445    
 L  C446    
 L  C447    
 L  C448    
 L  C449    
 L  C450    
 L  C451    
 L  C452    
 L  C454    
 L  C460    
 L  C461    
 L  C464    
 L  C468    
 L  C469    
 L  C470    
 L  C473    
 L  C475    
 L  C477    
 L  C478    
 L  C479    
 L  C480    
 L  C482    
 L  C483    
 L  C489    
 L  C490    
 L  C491    
 L  C497    
 L  C499    
 L  C500    
 L  C505    
 L  C510    
 L  C512    
 L  C518    
 L  C521    
 L  C522    
 L  C523    
 L  C525    
 L  C526    
 L  C532    
 L  C533    
 L  C535    
 L  C536    
 L  C541    
 L  C543    
 L  C544    
 L  C546    
 L  C551    
 L  C553    
 L  C555    
 L  C556    
 L  C557    
 L  C558    
 L  C559    
 L  C561    
 L  C563    
 L  C564    
 L  C565    
 L  C567    
 L  C568    
 L  C569    
COLUMNS
    MARKER    'MARKER'                 'INTORG'
    x1        __OBJ___  -1
    x1        C13       1
    x1        C37       1
    x1        C81       1
    x1        C87       1
    x1        C114      1
    x1        C155      1
    x1        C166      1
    x1        C167      1
    x1        C173      1
    x1        C191      1
    x1        C202      1
    x1        C294      1
    x1        C419      1
    x1        C468      1
    x4        __OBJ___  -1
    x4        C28       1
    x4        C43       1
    x4        C48       1
    x4        C105      1
    x4        C131      1
    x4        C169      1
    x4        C224      1
    x4        C240      1
    x4        C243      1
    x4        C273      1
    x4        C299      1
    x4        C306      1
    x4        C329      1
    x4        C363      1
    x4        C429      1
    x4        C464      1
    x4        C473      1
    x4        C510      1
    x4        C532      1
    x4        C553      1
    x8        __OBJ___  -1
    x8        C183      1
    x8        C282      1
    x8        C285      1
    x8        C350      1
    x8        C386      1
    x8        C434      1
    x8        C490      1
    x11       __OBJ___  -1
    x11       C73       1
    x11       C227      1
    x11       C318      1
    x11       C346      1
    x11       C350      1
    x11       C546      1
    x11       C553      1
    x13       __OBJ___  -1
    x13       C42       1
    x13       C53       1
    x13       C270      1
    x13       C282      1
    x13       C335      1
    x13       C450      1
    x13       C499      1
    x13       C558      1
    x15       __OBJ___  -1
    x15       C102      1
    x15       C149      1
    x15       C438      1
    x15       C450      1
    x15       C523      1
    x15       C536      1
    x16       __OBJ___  -1
    x16       C4        1
    x16       C93       1
    x16       C270      1
    x16       C380      1
    x16       C406      1
    x16       C441      1
    x16       C475      1
    x16       C477      1
    x16       C559      1
    x16       C568      1
    x17       __OBJ___  -1
    x17       C18       1
    x17       C213      1
    x17       C243      1
    x18       __OBJ___  -1
    x18       C43       1
    x18       C88       1
    x18       C125      1
    x18       C143      1
    x18       C359      1
    x18       C430      1
    x18       C432      1
    x18       C559      1
    x19       __OBJ___  -1
    x19       C25       1
    x19       C91       1
    x19       C115      1
    x19       C394      1
    x19       C406      1
    x19       C407      1
    x20       __OBJ___  -1
    x20       C40       1
    x20       C95       1
    x20       C131      1
    x20       C232      1
    x20       C257      1
    x20       C377      1
    x20       C556      1
    x21       __OBJ___  -1
    x21       C123      1
    x21       C230      1
    x21       C299      1
    x21       C323      1
    x21       C338      1
    x21       C416      1
    x21       C470      1
    x21       C518      1
    x22       __OBJ___  -1
    x22       C111      1
    x22       C183      1
    x22       C380      1
    x22       C460      1
    x23       __OBJ___  -1
    x23       C10       1
    x23       C43       1
    x23       C58       1
    x23       C273      1
    x23       C437      1
    x24       __OBJ___  -1
    x24       C54       1
    x24       C70       1
    x24       C110      1
    x24       C123      1
    x24       C249      1
    x24       C255      1
    x24       C296      1
    x24       C436      1
    x24       C440      1
    x24       C451      1
    x24       C475      1
    x24       C563      1
    x24       C567      1
    x25       __OBJ___  -1
    x25       C95       1
    x25       C131      1
    x25       C329      1
    x26       __OBJ___  -1
    x26       C54       1
    x26       C83       1
    x26       C162      1
    x26       C264      1
    x26       C330      1
    x26       C367      1
    x27       __OBJ___  -1
    x27       C59       1
    x27       C211      1
    x27       C240      1
    x27       C291      1
    x27       C320      1
    x28       __OBJ___  -1
    x28       C238      1
    x28       C249      1
    x28       C294      1
    x28       C357      1
    x28       C371      1
    x28       C551      1
    x29       __OBJ___  -1
    x29       C13       1
    x29       C81       1
    x29       C134      1
    x29       C166      1
    x29       C314      1
    x29       C430      1
    x29       C461      1
    x29       C489      1
    x29       C555      1
    x30       __OBJ___  -1
    x30       C75       1
    x30       C102      1
    x30       C223      1
    x30       C318      1
    x30       C339      1
    x30       C478      1
    x31       __OBJ___  -1
    x31       C59       1
    x31       C83       1
    x31       C167      1
    x31       C215      1
    x31       C234      1
    x31       C292      1
    x31       C397      1
    x31       C535      1
    x31       C564      1
    x33       __OBJ___  -1
    x33       C85       1
    x33       C295      1
    x34       __OBJ___  -1
    x34       C70       1
    x34       C202      1
    x34       C394      1
    x35       __OBJ___  -1
    x35       C7        1
    x35       C31       1
    x35       C36       1
    x35       C181      1
    x35       C189      1
    x35       C231      1
    x35       C290      1
    x35       C322      1
    x35       C325      1
    x35       C522      1
    x35       C569      1
    x36       __OBJ___  -1
    x36       C29       1
    x36       C80       1
    x36       C182      1
    x36       C285      1
    x36       C446      1
    x37       __OBJ___  -1
    x37       C3        1
    x37       C257      1
    x37       C276      1
    x37       C416      1
    x38       __OBJ___  -1
    x38       C20       1
    x38       C121      1
    x38       C172      1
    x38       C269      1
    x38       C397      1
    x38       C443      1
    x38       C568      1
    x39       __OBJ___  -1
    x39       C234      1
    x39       C359      1
    x41       __OBJ___  -1
    x41       C162      1
    x41       C250      1
    x41       C428      1
    x41       C561      1
    x42       __OBJ___  -1
    x42       C36       1
    x42       C53       1
    x42       C90       1
    x42       C277      1
    x42       C284      1
    x42       C437      1
    x42       C497      1
    x42       C525      1
    x42       C551      1
    x43       __OBJ___  -1
    x43       C38       1
    x43       C101      1
    x43       C121      1
    x43       C189      1
    x43       C212      1
    x43       C228      1
    x43       C278      1
    x43       C409      1
    x43       C478      1
    x43       C479      1
    x44       __OBJ___  -1
    x44       C122      1
    x44       C227      1
    x44       C460      1
    x45       __OBJ___  -1
    x45       C66       1
    x45       C135      1
    x45       C198      1
    x45       C247      1
    x45       C274      1
    x45       C440      1
    x46       __OBJ___  -1
    x46       C269      1
    x46       C355      1
    x46       C518      1
    x46       C544      1
    x47       __OBJ___  -1
    x47       C7        1
    x47       C81       1
    x49       __OBJ___  -1
    x49       C72       1
    x49       C91       1
    x49       C181      1
    x51       __OBJ___  -1
    x51       C29       1
    x51       C74       1
    x51       C360      1
    x51       C469      1
    x52       __OBJ___  -1
    x52       C181      1
    x52       C413      1
    x52       C443      1
    x52       C480      1
    x52       C526      1
    x53       __OBJ___  -1
    x53       C50       1
    x53       C96       1
    x53       C173      1
    x53       C198      1
    x53       C335      1
    x54       __OBJ___  -1
    x54       C45       1
    x54       C261      1
    x54       C299      1
    x54       C300      1
    x54       C342      1
    x54       C345      1
    x54       C480      1
    x55       __OBJ___  -1
    x55       C122      1
    x55       C364      1
    x55       C436      1
    x56       __OBJ___  -1
    x56       C13       1
    x56       C48       1
    x56       C104      1
    x57       __OBJ___  -1
    x57       C413      1
    x57       C464      1
    x58       __OBJ___  -1
    x58       C38       1
    x58       C39       1
    x58       C111      1
    x58       C129      1
    x58       C134      1
    x58       C367      1
    x58       C412      1
    x58       C425      1
    x58       C512      1
    x59       __OBJ___  -1
    x59       C223      1
    x59       C252      1
    x59       C408      1
    x59       C461      1
    x59       C543      1
    x60       __OBJ___  -1
    x60       C149      1
    x60       C224      1
    x60       C245      1
    x60       C250      1
    x61       __OBJ___  -1
    x61       C101      1
    x61       C226      1
    x61       C323      1
    x61       C431      1
    x61       C558      1
    x62       __OBJ___  -1
    x62       C155      1
    x62       C188      1
    x62       C306      1
    x62       C398      1
    x62       C447      1
    x62       C477      1
    x63       __OBJ___  -1
    x63       C182      1
    x63       C226      1
    x63       C307      1
    x64       __OBJ___  -1
    x64       C75       1
    x64       C261      1
    x64       C371      1
    x64       C421      1
    x65       __OBJ___  -1
    x65       C6        1
    x65       C31       1
    x65       C382      1
    x65       C452      1
    x66       __OBJ___  -1
    x66       C53       1
    x66       C153      1
    x66       C369      1
    x66       C403      1
    x66       C555      1
    x66       C557      1
    x67       __OBJ___  -1
    x67       C19       1
    x67       C69       1
    x67       C194      1
    x67       C214      1
    x67       C290      1
    x67       C314      1
    x67       C522      1
    x67       C532      1
    x67       C544      1
    x68       __OBJ___  -1
    x68       C32       1
    x68       C188      1
    x68       C306      1
    x68       C329      1
    x69       __OBJ___  -1
    x69       C95       1
    x69       C109      1
    x69       C327      1
    x69       C393      1
    x69       C522      1
    x70       __OBJ___  -1
    x70       C114      1
    x70       C469      1
    x71       __OBJ___  -1
    x71       C40       1
    x71       C130      1
    x71       C210      1
    x71       C320      1
    x71       C567      1
    x73       __OBJ___  -1
    x73       C346      1
    x73       C500      1
    x74       __OBJ___  -1
    x74       C126      1
    x74       C359      1
    x74       C421      1
    x75       __OBJ___  -1
    x75       C4        1
    x75       C17       1
    x75       C50       1
    x75       C334      1
    x75       C405      1
    x75       C490      1
    x76       __OBJ___  -1
    x76       C10       1
    x76       C499      1
    x77       __OBJ___  -1
    x77       C6        1
    x77       C360      1
    x78       __OBJ___  -1
    x78       C96       1
    x78       C382      1
    x79       __OBJ___  -1
    x79       C171      1
    x79       C193      1
    x79       C245      1
    x79       C293      1
    x79       C351      1
    x79       C535      1
    x80       __OBJ___  -1
    x80       C212      1
    x80       C213      1
    x80       C419      1
    x81       __OBJ___  -1
    x81       C89       1
    x81       C214      1
    x81       C240      1
    x81       C374      1
    x81       C403      1
    x81       C532      1
    x82       __OBJ___  -1
    x82       C2        1
    x82       C72       1
    x82       C141      1
    x82       C292      1
    x82       C333      1
    x82       C451      1
    x83       __OBJ___  -1
    x83       C85       1
    x83       C104      1
    x83       C186      1
    x83       C296      1
    x83       C405      1
    x83       C533      1
    x84       __OBJ___  -1
    x84       C58       1
    x84       C148      1
    x84       C215      1
    x84       C386      1
    x84       C541      1
    x85       __OBJ___  -1
    x85       C93       1
    x85       C338      1
    x86       __OBJ___  -1
    x86       C21       1
    x86       C61       1
    x86       C543      1
    x87       __OBJ___  -1
    x87       C277      1
    x87       C491      1
    x87       C526      1
    x88       __OBJ___  -1
    x88       C21       1
    x88       C130      1
    x88       C290      1
    x89       __OBJ___  -1
    x89       C105      1
    x89       C129      1
    x90       __OBJ___  -1
    x90       C41       1
    x90       C89       1
    x90       C110      1
    x90       C214      1
    x90       C216      1
    x90       C454      1
    x90       C546      1
    x91       __OBJ___  -1
    x91       C193      1
    x91       C569      1
    x92       __OBJ___  -1
    x92       C74       1
    x92       C105      1
    x92       C325      1
    x93       __OBJ___  -1
    x93       C357      1
    x93       C409      1
    x93       C565      1
    x94       __OBJ___  -1
    x94       C2        1
    x94       C510      1
    x95       __OBJ___  -1
    x95       C109      1
    x95       C307      1
    x95       C491      1
    x96       __OBJ___  -1
    x96       C92       1
    x96       C334      1
    x96       C432      1
    x97       __OBJ___  -1
    x97       C125      1
    x97       C364      1
    x97       C448      1
    x98       __OBJ___  -1
    x98       C322      1
    x98       C415      1
    x98       C429      1
    x98       C482      1
    x98       C561      1
    x98       C565      1
    x99       __OBJ___  -1
    x99       C66       1
    x99       C273      1
    x101      __OBJ___  -1
    x101      C46       1
    x101      C205      1
    x101      C242      1
    x101      C295      1
    x101      C363      1
    x102      __OBJ___  -1
    x102      C148      1
    x102      C297      1
    x102      C446      1
    x103      __OBJ___  -1
    x103      C42       1
    x103      C46       1
    x103      C159      1
    x103      C191      1
    x103      C365      1
    x104      __OBJ___  -1
    x104      C92       1
    x104      C195      1
    x104      C355      1
    x104      C407      1
    x105      __OBJ___  -1
    x105      C69       1
    x105      C345      1
    x105      C483      1
    x105      C563      1
    x106      __OBJ___  -1
    x106      C211      1
    x106      C242      1
    x106      C342      1
    x106      C393      1
    x106      C445      1
    x107      __OBJ___  -1
    x107      C18       1
    x107      C98       1
    x107      C153      1
    x107      C172      1
    x107      C331      1
    x108      __OBJ___  -1
    x108      C99       1
    x108      C412      1
    x108      C424      1
    x108      C428      1
    x108      C483      1
    x109      __OBJ___  -1
    x109      C128      1
    x109      C278      1
    x109      C374      1
    x109      C384      1
    x109      C556      1
    x110      __OBJ___  -1
    x110      C188      1
    x110      C232      1
    x110      C402      1
    x111      __OBJ___  -1
    x111      C58       1
    x111      C80       1
    x112      __OBJ___  -1
    x112      C166      1
    x112      C170      1
    x112      C293      1
    x112      C449      1
    x112      C473      1
    x113      __OBJ___  -1
    x113      C25       1
    x113      C497      1
    x114      __OBJ___  -1
    x114      C20       1
    x114      C398      1
    x114      C557      1
    x116      __OBJ___  -1
    x116      C41       1
    x116      C90       1
    x116      C468      1
    x117      __OBJ___  -1
    x117      C183      1
    x117      C256      1
    x117      C489      1
    x117      C505      1
    x118      __OBJ___  -1
    x118      C142      1
    x118      C255      1
    x118      C434      1
    x118      C448      1
    x119      __OBJ___  -1
    x119      C30       1
    x119      C44       1
    x119      C195      1
    x119      C238      1
    x119      C356      1
    x119      C431      1
    x120      __OBJ___  -1
    x120      C98       1
    x120      C216      1
    x120      C473      1
    x121      __OBJ___  -1
    x121      C84       1
    x121      C424      1
    x121      C523      1
    x122      __OBJ___  -1
    x122      C37       1
    x122      C88       1
    x122      C336      1
    x122      C402      1
    x123      __OBJ___  -1
    x123      C438      1
    x123      C441      1
    x123      C482      1
    x124      __OBJ___  -1
    x124      C169      1
    x124      C186      1
    x124      C330      1
    x124      C500      1
    x125      __OBJ___  -1
    x125      C19       1
    x125      C252      1
    x125      C274      1
    x125      C280      1
    x126      __OBJ___  -1
    x126      C415      1
    x126      C479      1
    x126      C564      1
    x127      __OBJ___  -1
    x127      C264      1
    x127      C346      1
    x127      C414      1
    x127      C470      1
    x128      __OBJ___  -1
    x128      C44       1
    x128      C61       1
    x128      C230      1
    x128      C339      1
    x129      __OBJ___  -1
    x129      C171      1
    x129      C256      1
    x130      __OBJ___  -1
    x130      C30       1
    x130      C231      1
    x130      C331      1
    x130      C505      1
    x131      __OBJ___  -1
    x131      C141      1
    x131      C377      1
    x131      C541      1
    x132      __OBJ___  -1
    x132      C89       1
    x132      C135      1
    x133      __OBJ___  -1
    x133      C3        1
    x133      C536      1
    x134      __OBJ___  -1
    x134      C126      1
    x134      C276      1
    x134      C280      1
    x134      C384      1
    x135      __OBJ___  -1
    x135      C84       1
    x135      C205      1
    x135      C356      1
    x135      C408      1
    x136      __OBJ___  -1
    x136      C210      1
    x136      C447      1
    x137      __OBJ___  -1
    x137      C291      1
    x137      C300      1
    x137      C512      1
    x138      __OBJ___  -1
    x138      C27       1
    x138      C142      1
    x138      C284      1
    x138      C336      1
    x139      __OBJ___  -1
    x139      C194      1
    x139      C425      1
    x139      C521      1
    x139      C525      1
    x140      __OBJ___  -1
    x140      C17       1
    x140      C73       1
    x140      C87       1
    x140      C228      1
    x142      __OBJ___  -1
    x142      C449      1
    x142      C533      1
    x143      __OBJ___  -1
    x143      C32       1
    x143      C39       1
    x143      C45       1
    x144      __OBJ___  -1
    x144      C99       1
    x144      C128      1
    x145      __OBJ___  -1
    x145      C27       1
    x145      C170      1
    x145      C297      1
    x145      C521      1
    x146      __OBJ___  -1
    x146      C327      1
    x146      C333      1
    x146      C365      1
    x146      C414      1
    x147      __OBJ___  -1
    x147      C64       1
    x147      C159      1
    x147      C247      1
    x147      C351      1
    x147      C369      1
    x148      __OBJ___  -1
    x148      C28       1
    x148      C115      1
    x148      C445      1
    x148      C454      1
    x150      __OBJ___  -1
    x150      C64       1
    x150      C143      1
    x150      C452      1
    MARKER    'MARKER'                 'INTEND'
RHS
    RHS       __OBJ___  6
    RHS       C2        1
    RHS       C3        1
    RHS       C4        1
    RHS       C6        1
    RHS       C7        1
    RHS       C10       1
    RHS       C13       1
    RHS       C17       1
    RHS       C18       1
    RHS       C19       1
    RHS       C20       1
    RHS       C21       1
    RHS       C25       1
    RHS       C27       1
    RHS       C28       1
    RHS       C29       1
    RHS       C30       1
    RHS       C31       1
    RHS       C32       1
    RHS       C36       1
    RHS       C37       1
    RHS       C38       1
    RHS       C39       1
    RHS       C40       1
    RHS       C41       1
    RHS       C42       1
    RHS       C43       1
    RHS       C44       1
    RHS       C45       1
    RHS       C46       1
    RHS       C48       1
    RHS       C50       1
    RHS       C53       1
    RHS       C54       1
    RHS       C58       1
    RHS       C59       1
    RHS       C61       1
    RHS       C64       1
    RHS       C66       1
    RHS       C69       1
    RHS       C70       1
    RHS       C72       1
    RHS       C73       1
    RHS       C74       1
    RHS       C75       1
    RHS       C80       1
    RHS       C81       1
    RHS       C83       1
    RHS       C84       1
    RHS       C85       1
    RHS       C87       1
    RHS       C88       1
    RHS       C89       1
    RHS       C90       1
    RHS       C91       1
    RHS       C92       1
    RHS       C93       1
    RHS       C95       1
    RHS       C96       1
    RHS       C98       1
    RHS       C99       1
    RHS       C101      1
    RHS       C102      1
    RHS       C104      1
    RHS       C105      1
    RHS       C109      1
    RHS       C110      1
    RHS       C111      1
    RHS       C114      1
    RHS       C115      1
    RHS       C121      1
    RHS       C122      1
    RHS       C123      1
    RHS       C125      1
    RHS       C126      1
    RHS       C128      1
    RHS       C129      1
    RHS       C130      1
    RHS       C131      1
    RHS       C134      1
    RHS       C135      1
    RHS       C141      1
    RHS       C142      1
    RHS       C143      1
    RHS       C148      1
    RHS       C149      1
    RHS       C153      1
    RHS       C155      1
    RHS       C159      1
    RHS       C162      1
    RHS       C166      1
    RHS       C167      1
    RHS       C169      1
    RHS       C170      1
    RHS       C171      1
    RHS       C172      1
    RHS       C173      1
    RHS       C181      1
    RHS       C182      1
    RHS       C183      1
    RHS       C186      1
    RHS       C188      1
    RHS       C189      1
    RHS       C191      1
    RHS       C193      1
    RHS       C194      1
    RHS       C195      1
    RHS       C198      1
    RHS       C202      1
    RHS       C205      1
    RHS       C210      1
    RHS       C211      1
    RHS       C212      1
    RHS       C213      1
    RHS       C214      1
    RHS       C215      1
    RHS       C216      1
    RHS       C223      1
    RHS       C224      1
    RHS       C226      1
    RHS       C227      1
    RHS       C228      1
    RHS       C230      1
    RHS       C231      1
    RHS       C232      1
    RHS       C234      1
    RHS       C238      1
    RHS       C240      1
    RHS       C242      1
    RHS       C243      1
    RHS       C245      1
    RHS       C247      1
    RHS       C249      1
    RHS       C250      1
    RHS       C252      1
    RHS       C255      1
    RHS       C256      1
    RHS       C257      1
    RHS       C261      1
    RHS       C264      1
    RHS       C269      1
    RHS       C270      1
    RHS       C273      1
    RHS       C274      1
    RHS       C276      1
    RHS       C277      1
    RHS       C278      1
    RHS       C280      1
    RHS       C282      1
    RHS       C284      1
    RHS       C285      1
    RHS       C290      1
    RHS       C291      1
    RHS       C292      1
    RHS       C293      1
    RHS       C294      1
    RHS       C295      1
    RHS       C296      1
    RHS       C297      1
    RHS       C299      1
    RHS       C300      1
    RHS       C306      1
    RHS       C307      1
    RHS       C314      1
    RHS       C318      1
    RHS       C320      1
    RHS       C322      1
    RHS       C323      1
    RHS       C325      1
    RHS       C327      1
    RHS       C329      1
    RHS       C330      1
    RHS       C331      1
    RHS       C333      1
    RHS       C334      1
    RHS       C335      1
    RHS       C336      1
    RHS       C338      1
    RHS       C339      1
    RHS       C342      1
    RHS       C345      1
    RHS       C346      1
    RHS       C350      1
    RHS       C351      1
    RHS       C355      1
    RHS       C356      1
    RHS       C357      1
    RHS       C359      1
    RHS       C360      1
    RHS       C363      1
    RHS       C364      1
    RHS       C365      1
    RHS       C367      1
    RHS       C369      1
    RHS       C371      1
    RHS       C374      1
    RHS       C377      1
    RHS       C380      1
    RHS       C382      1
    RHS       C384      1
    RHS       C386      1
    RHS       C393      1
    RHS       C394      1
    RHS       C397      1
    RHS       C398      1
    RHS       C402      1
    RHS       C403      1
    RHS       C405      1
    RHS       C406      1
    RHS       C407      1
    RHS       C408      1
    RHS       C409      1
    RHS       C412      1
    RHS       C413      1
    RHS       C414      1
    RHS       C415      1
    RHS       C416      1
    RHS       C419      1
    RHS       C421      1
    RHS       C424      1
    RHS       C425      1
    RHS       C428      1
    RHS       C429      1
    RHS       C430      1
    RHS       C431      1
    RHS       C432      1
    RHS       C434      1
    RHS       C436      1
    RHS       C437      1
    RHS       C438      1
    RHS       C440      1
    RHS       C441      1
    RHS       C443      1
    RHS       C445      1
    RHS       C446      1
    RHS       C447      1
    RHS       C448      1
    RHS       C449      1
    RHS       C450      1
    RHS       C451      1
    RHS       C452      1
    RHS       C454      1
    RHS       C460      1
    RHS       C461      1
    RHS       C464      1
    RHS       C468      1
    RHS       C469      1
    RHS       C470      1
    RHS       C473      1
    RHS       C475      1
    RHS       C477      1
    RHS       C478      1
    RHS       C479      1
    RHS       C480      1
    RHS       C482      1
    RHS       C483      1
    RHS       C489      1
    RHS       C490      1
    RHS       C491      1
    RHS       C497      1
    RHS       C499      1
    RHS       C500      1
    RHS       C505      1
    RHS       C510      1
    RHS       C512      1
    RHS       C518      1
    RHS       C521      1
    RHS       C522      1
    RHS       C523      1
    RHS       C525      1
    RHS       C526      1
    RHS       C532      1
    RHS       C533      1
    RHS       C535      1
    RHS       C536      1
    RHS       C541      1
    RHS       C543      1
    RHS       C544      1
    RHS       C546      1
    RHS       C551      1
    RHS       C553      1
    RHS       C555      1
    RHS       C556      1
    RHS       C557      1
    RHS       C558      1
    RHS       C559      1
    RHS       C561      1
    RHS       C563      1
    RHS       C564      1
    RHS       C565      1
    RHS       C567      1
    RHS       C568      1
    RHS       C569      1
BOUNDS
 UP BOUND     x1        1
 UP BOUND     x4        1
 UP BOUND     x8        1
 UP BOUND     x11       1
 UP BOUND     x13       1
 UP BOUND     x15       1
 UP BOUND     x16       1
 UP BOUND     x17       1
 UP BOUND     x18       1
 UP BOUND     x19       1
 UP BOUND     x20       1
 UP BOUND     x21       1
 UP BOUND     x22       1
 UP BOUND     x23       1
 UP BOUND     x24       1
 UP BOUND     x25       1
 UP BOUND     x26       1
 UP BOUND     x27       1
 UP BOUND     x28       1
 UP BOUND     x29       1
 UP BOUND     x30       1
 UP BOUND     x31       1
 UP BOUND     x33       1
 UP BOUND     x34       1
 UP BOUND     x35       1
 UP BOUND     x36       1
 UP BOUND     x37       1
 UP BOUND     x38       1
 UP BOUND     x39       1
 UP BOUND     x41       1
 UP BOUND     x42       1
 UP BOUND     x43       1
 UP BOUND     x44       1
 UP BOUND     x45       1
 UP BOUND     x46       1
 UP BOUND     x47       1
 UP BOUND     x49       1
 UP BOUND     x51       1
 UP BOUND     x52       1
 UP BOUND     x53       1
 UP BOUND     x54       1
 UP BOUND     x55       1
 UP BOUND     x56       1
 UP BOUND     x57       1
 UP BOUND     x58       1
 UP BOUND     x59       1
 UP BOUND     x60       1
 UP BOUND     x61       1
 UP BOUND     x62       1
 UP BOUND     x63       1
 UP BOUND     x64       1
 UP BOUND     x65       1
 UP BOUND     x66       1
 UP BOUND     x67       1
 UP BOUND     x68       1
 UP BOUND     x69       1
 UP BOUND     x70       1
 UP BOUND     x71       1
 UP BOUND     x73       1
 UP BOUND     x74       1
 UP BOUND     x75       1
 UP BOUND     x76       1
 UP BOUND     x77       1
 UP BOUND     x78       1
 UP BOUND     x79       1
 UP BOUND     x80       1
 UP BOUND     x81       1
 UP BOUND     x82       1
 UP BOUND     x83       1
 UP BOUND     x84       1
 UP BOUND     x85       1
 UP BOUND     x86       1
 UP BOUND     x87       1
 UP BOUND     x88       1
 UP BOUND     x89       1
 UP BOUND     x90       1
 UP BOUND     x91       1
 UP BOUND     x92       1
 UP BOUND     x93       1
 UP BOUND     x94       1
 UP BOUND     x95       1
 UP BOUND     x96       1
 UP BOUND     x97       1
 UP BOUND     x98       1
 UP BOUND     x99       1
 UP BOUND     x101      1
 UP BOUND     x102      1
 UP BOUND     x103      1
 UP BOUND     x104      1
 UP BOUND     x105      1
 UP BOUND     x106      1
 UP BOUND     x107      1
 UP BOUND     x108      1
 UP BOUND     x109      1
 UP BOUND     x110      1
 UP BOUND     x111      1
 UP BOUND     x112      1
 UP BOUND     x113      1
 UP BOUND     x114      1
 UP BOUND     x116      1
 UP BOUND     x117      1
 UP BOUND     x118      1
 UP BOUND     x119      1
 UP BOUND     x120      1
 UP BOUND     x121      1
 UP BOUND     x122      1
 UP BOUND     x123      1
 UP BOUND     x124      1
 UP BOUND     x125      1
 UP BOUND     x126      1
 UP BOUND     x127      1
 UP BOUND     x128      1
 UP BOUND     x129      1
 UP BOUND     x130      1
 UP BOUND     x131      1
 UP BOUND     x132      1
 UP BOUND     x133      1
 UP BOUND     x134      1
 UP BOUND     x135      1
 UP BOUND     x136      1
 UP BOUND     x137      1
 UP BOUND     x138      1
 UP BOUND     x139      1
 UP BOUND     x140      1
 UP BOUND     x142      1
 UP BOUND     x143      1
 UP BOUND     x144      1
 UP BOUND     x145      1
 UP BOUND     x146      1
 UP BOUND     x147      1
 UP BOUND     x148      1
 UP BOUND     x150      1
ENDATA
